
(set-logic BV)

(define-fun shr1 ((x (BitVec 64))) (BitVec 64) (bvlshr x #x0000000000000001))
(define-fun shr4 ((x (BitVec 64))) (BitVec 64) (bvlshr x #x0000000000000004))
(define-fun shr16 ((x (BitVec 64))) (BitVec 64) (bvlshr x #x0000000000000010))
(define-fun shl1 ((x (BitVec 64))) (BitVec 64) (bvshl x #x0000000000000001))
(define-fun if0 ((x (BitVec 64)) (y (BitVec 64)) (z (BitVec 64))) (BitVec 64) (ite (= x #x0000000000000001) y z))
(define-fun func24  ((A (BitVec 64)) (B (BitVec 64)) (C (BitVec 64)) (D (BitVec 64)) ) (BitVec 64) (bvand (bvlshr (bvlshr C  D ) B ) A ))
(define-fun func25  ((A (BitVec 64)) (B (BitVec 64)) (C (BitVec 64)) ) (BitVec 64) (bvand (bvlshr (bvlshr B  C ) A ) #x0000000000000004 ))
(define-fun func26  ((A (BitVec 64)) (B (BitVec 64)) (C (BitVec 64)) ) (BitVec 64) (bvand (bvlshr (bvlshr B  C ) #x0000000000000004 ) A ))
(define-fun func27  ((A (BitVec 64)) (B (BitVec 64)) (C (BitVec 64)) ) (BitVec 64) (bvand (bvlshr B  C ) A ))
(define-fun func28  ((A (BitVec 64)) (B (BitVec 64)) ) (BitVec 64) (bvand (bvlshr B  #x0000000000000010 ) A ))
(define-fun func29  ((A (BitVec 64)) (B (BitVec 64)) ) (BitVec 64) (bvand (bvlshr B  #x0000000000000001 ) A ))
(define-fun func30  ((A (BitVec 64)) (B (BitVec 64)) ) (BitVec 64) (bvand (bvlshr B  #x0000000000000004 ) A ))
(define-fun func31  ((A (BitVec 64)) (B (BitVec 64)) ) (BitVec 64) (bvand (bvlshr A  B ) #x0000000000000001 ))
(define-fun func32  ((A (BitVec 64)) ) (BitVec 64) (bvand A  #x0000000000000001 ))
(define-fun func33  ((A (BitVec 64)) (B (BitVec 64)) (C (BitVec 64)) (D (BitVec 64)) ) (BitVec 64) (bvlshr (bvlshr (bvlshr C  D ) B ) A ))
(define-fun func34  ((A (BitVec 64)) (B (BitVec 64)) (C (BitVec 64)) ) (BitVec 64) (bvlshr (bvlshr (bvlshr C  #x0000000000000010 ) B ) A ))
(define-fun func35  ((A (BitVec 64)) (B (BitVec 64)) (C (BitVec 64)) ) (BitVec 64) (bvlshr (bvlshr B  C ) A ))
(define-fun func36  ((A (BitVec 64)) (B (BitVec 64)) ) (BitVec 64) (bvlshr (bvlshr B  #x0000000000000010 ) A ))
(define-fun func37  ((A (BitVec 64)) (B (BitVec 64)) ) (BitVec 64) (bvlshr (bvlshr B  #x0000000000000004 ) A ))
(define-fun func38  ((A (BitVec 64)) (B (BitVec 64)) ) (BitVec 64) (bvlshr (bvlshr B  #x0000000000000001 ) A ))
(define-fun func39  ((A (BitVec 64)) (B (BitVec 64)) ) (BitVec 64) (bvlshr (bvlshr A  B ) #x0000000000000001 ))
(define-fun func40  ((A (BitVec 64)) (B (BitVec 64)) ) (BitVec 64) (bvlshr (bvlshr A  B ) #x0000000000000004 ))
(define-fun func41  ((A (BitVec 64)) (B (BitVec 64)) ) (BitVec 64) (bvlshr A  B ))
(define-fun func42  ((A (BitVec 64)) (B (BitVec 64)) (C (BitVec 64)) ) (BitVec 64) (bvlshr (bvshl B  C ) A ))
(define-fun func43  ((A (BitVec 64)) (B (BitVec 64)) ) (BitVec 64) (bvlshr (bvshl B  #x0000000000000001 ) A ))
(define-fun func44  ((A (BitVec 64)) (B (BitVec 64)) ) (BitVec 64) (bvlshr (bvnot B ) A ))
(define-fun func45  ((A (BitVec 64)) ) (BitVec 64) (bvlshr (bvnot A ) #x0000000000000010 ))
(define-fun func46  ((A (BitVec 64)) (B (BitVec 64)) (C (BitVec 64)) ) (BitVec 64) (bvlshr (bvadd B  C ) A ))
(define-fun func47  ((A (BitVec 64)) (B (BitVec 64)) (C (BitVec 64)) ) (BitVec 64) (bvshl (bvlshr B  C ) A ))
(define-fun func48  ((A (BitVec 64)) (B (BitVec 64)) ) (BitVec 64) (bvshl (bvlshr B  #x0000000000000001 ) A ))
(define-fun func49  ((A (BitVec 64)) (B (BitVec 64)) ) (BitVec 64) (bvshl (bvlshr A  B ) #x0000000000000001 ))
(define-fun func51  ((A (BitVec 64)) (B (BitVec 64)) ) (BitVec 64) (bvshl (bvnot B ) A ))
(define-fun func52  ((A (BitVec 64)) ) (BitVec 64) (bvshl (bvnot A ) #x0000000000000001 ))
(define-fun func53  ((A (BitVec 64)) ) (BitVec 64) (bvnot (bvshl A  #x0000000000000001 )))
(define-fun func55  ((A (BitVec 64)) (B (BitVec 64)) (C (BitVec 64)) ) (BitVec 64) (bvadd (bvlshr B  C ) A ))
(define-fun func56  ((A (BitVec 64)) ) (BitVec 64) (bvadd A  #x0000000000000001 ))
(define-fun func57  ((A (BitVec 64)) (B (BitVec 64)) (C (BitVec 64)) ) (BitVec 64) (bvadd (bvshl B  C ) A ))
(define-fun func58  ((A (BitVec 64)) (B (BitVec 64)) ) (BitVec 64) (bvadd (bvshl B  #x0000000000000001 ) A ))
(define-fun func59  ((A (BitVec 64)) (B (BitVec 64)) (C (BitVec 64)) ) (BitVec 64) (bvor (bvlshr B  C ) A ))
(define-fun func60  ((A (BitVec 64)) ) (BitVec 64) (bvor A  #x0000000000000001 ))
(synth-fun f ( (x (BitVec 64))) (BitVec 64)
(
(Start (BitVec 64) (
   #x0000000000000000
   #x0000000000000001
   x
   (func24 Start Start Start Start)
   (func26 Start Start Start)
   (func30 Start Start)
   (func31 Start Start)
   (func32 Start)
   (func33 Start Start Start Start)
   (func34 Start Start Start)
   (func35 Start Start Start)
   (func38 Start Start)
   (func41 Start Start)
   (func43 Start Start)
   (func45 Start)
   (func47 Start Start Start)
   (func53 Start)
   (func56 Start)
   (func60 Start)
   (bvnot Start)
   (shr1 Start)
   (shr4 Start)
   (shr16 Start)
   (bvor Start Start)
   (bvadd Start Start)
   (if0 Start Start Start)
))
))
(constraint (= (f #x84f312f4e2086a61) #x7b0ced0b1df7959e))
(constraint (= (f #x46d7a8e955d1d94d) #xb9285716aa2e26b2))
(constraint (= (f #x08f9a3ee2a870ad5) #xf7065c11d578f52a))
(constraint (= (f #x968f3df6d600a751) #x6970c20929ff58ae))
(constraint (= (f #x5a6f5177f73cb95d) #xa590ae8808c346a2))
(constraint (= (f #xcdb6cbe0a37b7fe8) #x3249341f5c848017))
(constraint (= (f #xf328632b1af5d058) #x0cd79cd4e50a2fa7))
(constraint (= (f #x7d8d7200277e3268) #x82728dffd881cd97))
(constraint (= (f #x2da3070f053c1c3c) #xd25cf8f0fac3e3c3))
(constraint (= (f #xa102c5a74d9e148c) #x5efd3a58b261eb73))
(constraint (= (f #xffaf1b06196e1246) #xffaf14fce8de73d0))
(constraint (= (f #x3a53f3893167ab82) #x3a53f02c0e5f3894))
(constraint (= (f #xafdf1a996982a8c6) #xafdf1064982b3e5e))
(constraint (= (f #x2d6cb52c4e5a390e) #x2d6cb7fa8508fdeb))
(constraint (= (f #xfceda8c05da77102) #xfceda70e872b74d8))
(constraint (= (f #x0000000000000001) #xfffffffffffffffe))
(constraint (= (f #x00000001018c68cd) #xfffffffefe739732))
(constraint (= (f #x000000010a6f6975) #xfffffffef590968a))
(constraint (= (f #x000000010c856591) #xfffffffef37a9a6e))
(constraint (= (f #x00000001b39e3901) #xfffffffe4c61c6fe))
(constraint (= (f #x0000000165a6d14d) #xfffffffe9a592eb2))
(constraint (= (f #x00000001ae9b4da4) #xfffffffe5164b25a))
(constraint (= (f #x00000001f8f41bdc) #xfffffffe070be422))
(constraint (= (f #x000000012a142b9c) #xfffffffed5ebd462))
(constraint (= (f #x000000015a2adb40) #xfffffffea5d524be))
(constraint (= (f #x000000011a63bde4) #xfffffffee59c421a))
(constraint (= (f #x000000015ecba66a) #x000000015ecbb386))
(constraint (= (f #x0000000186daf9ce) #x0000000186dae1a3))
(constraint (= (f #x000000019342204e) #x000000019342397a))
(constraint (= (f #x000000010acf534e) #x000000010acf43e2))
(constraint (= (f #x000000018c342b1e) #x000000018c3433dd))
(constraint (= (f #xf326ad46b5cac0a7) #xf326ad46b5cac0a7))
(constraint (= (f #xc659198cf085faff) #xc659198cf085faff))
(constraint (= (f #xf5a5884608a1124b) #xf5a5884608a1124b))
(constraint (= (f #x261e98610bfec07b) #x261e98610bfec07b))
(constraint (= (f #x2c7044850193efa3) #x2c7044850193efa3))
(constraint (= (f #x00000001fb55daa7) #x00000001fb55daa7))
(constraint (= (f #x0000000136470ecb) #x0000000136470ecb))
(constraint (= (f #x00000001f142696b) #x00000001f142696b))
(constraint (= (f #x00000001c157b3b3) #x00000001c157b3b3))
(constraint (= (f #x000000012f11cd67) #x000000012f11cd67))
(constraint (= (f #x2444206d551fd088) #xdbbbdf92aae02f77))
(constraint (= (f #x89a7c86dff7e269f) #x89a7c86dff7e269f))
(constraint (= (f #x00a7229626b607b6) #x00a7229c549f65dd))
(constraint (= (f #x145d2c434d63c813) #x145d2c434d63c813))
(constraint (= (f #x8b78f3b3ec914237) #x8b78f3b3ec914237))
(constraint (= (f #x6d7bd7fe9347d997) #x6d7bd7fe9347d997))
(constraint (= (f #xf4a838d368a3393a) #xf4a83799eb2e0fb0))
(constraint (= (f #x564dee4b10499936) #x564deb2fcead2832))
(constraint (= (f #xba7913288ae237ed) #x4586ecd7751dc812))
(constraint (= (f #x30884fa85508f4da) #x30884ca0d1f2718a))
(constraint (= (f #x00000001cfc20468) #xfffffffe303dfb96))
(constraint (= (f #x000000018cc43e13) #x000000018cc43e13))
(constraint (= (f #x00000001775c5d66) #x00000001775c4a13))
(constraint (= (f #x000000015bcdcbfd) #xfffffffea4323402))
(check-synth)
